\ Model adaLFS_copy
\ LP format - for model browsing. Use MPS format to capture full model detail.
\ Signature: 0xcd2df884ba1af6c3
Minimize
 
Subject To
 h_0_fixed: h[0] = 1
 h_N_fixed: h[200] = 0
 h_prime_prime_def_0: 137.7665697236257 h[0] - 137.7665697236257 h[2]
   + h_prime_prime[0] = 0
 h_prime_prime_lb_0: h_prime_prime[0] >= -1
 h_prime_prime_def_2: 137.7665697236257 h[2] - 137.7665697236257 h[4]
   + h_prime_prime[2] = 0
 h_prime_prime_lb_2: h_prime_prime[2] >= -1
 h_prime_prime_def_4: 137.7665697236257 h[4] - 137.7665697236257 h[6]
   + h_prime_prime[4] = 0
 h_prime_prime_lb_4: h_prime_prime[4] >= -1
 h_prime_prime_def_6: 137.7665697236257 h[6] - 137.7665697236257 h[8]
   + h_prime_prime[6] = 0
 h_prime_prime_lb_6: h_prime_prime[6] >= -1
 h_prime_prime_def_8: 137.7665697236257 h[8] - 137.7665697236257 h[10]
   + h_prime_prime[8] = 0
 h_prime_prime_lb_8: h_prime_prime[8] >= -1
 h_prime_prime_def_10: 137.7665697236257 h[10] - 137.7665697236257 h[12]
   + h_prime_prime[10] = 0
 h_prime_prime_lb_10: h_prime_prime[10] >= -1
 h_prime_prime_def_12: 137.7665697236257 h[12] - 137.7665697236257 h[14]
   + h_prime_prime[12] = 0
 h_prime_prime_lb_12: h_prime_prime[12] >= -1
 h_prime_prime_def_14: 137.7665697236257 h[14] - 137.7665697236257 h[16]
   + h_prime_prime[14] = 0
 h_prime_prime_lb_14: h_prime_prime[14] >= -1
 h_prime_prime_def_16: 137.7665697236257 h[16] - 137.7665697236257 h[18]
   + h_prime_prime[16] = 0
 h_prime_prime_lb_16: h_prime_prime[16] >= -1
 h_prime_prime_def_18: 137.7665697236257 h[18] - 137.7665697236257 h[20]
   + h_prime_prime[18] = 0
 h_prime_prime_lb_18: h_prime_prime[18] >= -1
 h_prime_prime_def_20: 137.7665697236257 h[20] - 137.7665697236257 h[22]
   + h_prime_prime[20] = 0
 h_prime_prime_lb_20: h_prime_prime[20] >= -1
 h_prime_prime_def_22: 137.7665697236257 h[22] - 137.7665697236257 h[24]
   + h_prime_prime[22] = 0
 h_prime_prime_lb_22: h_prime_prime[22] >= -1
 h_prime_prime_def_24: 137.7665697236257 h[24] - 137.7665697236257 h[26]
   + h_prime_prime[24] = 0
 h_prime_prime_lb_24: h_prime_prime[24] >= -1
 h_prime_prime_def_26: 137.7665697236257 h[26] - 137.7665697236257 h[28]
   + h_prime_prime[26] = 0
 h_prime_prime_lb_26: h_prime_prime[26] >= -1
 h_prime_prime_def_28: 137.7665697236257 h[28] - 137.7665697236257 h[30]
   + h_prime_prime[28] = 0
 h_prime_prime_lb_28: h_prime_prime[28] >= -1
 h_prime_prime_def_30: 137.7665697236257 h[30] - 137.7665697236257 h[32]
   + h_prime_prime[30] = 0
 h_prime_prime_lb_30: h_prime_prime[30] >= -1
 h_prime_prime_def_32: 137.7665697236257 h[32] - 137.7665697236257 h[34]
   + h_prime_prime[32] = 0
 h_prime_prime_lb_32: h_prime_prime[32] >= -1
 h_prime_prime_def_34: 137.7665697236257 h[34] - 137.7665697236257 h[36]
   + h_prime_prime[34] = 0
 h_prime_prime_lb_34: h_prime_prime[34] >= -1
 h_prime_prime_def_36: 137.7665697236257 h[36] - 137.7665697236257 h[38]
   + h_prime_prime[36] = 0
 h_prime_prime_lb_36: h_prime_prime[36] >= -1
 h_prime_prime_def_38: 137.7665697236257 h[38] - 137.7665697236257 h[40]
   + h_prime_prime[38] = 0
 h_prime_prime_lb_38: h_prime_prime[38] >= -1
 h_prime_prime_def_40: 137.7665697236257 h[40] - 137.7665697236257 h[42]
   + h_prime_prime[40] = 0
 h_prime_prime_lb_40: h_prime_prime[40] >= -1
 h_prime_prime_def_42: 137.7665697236257 h[42] - 137.7665697236257 h[44]
   + h_prime_prime[42] = 0
 h_prime_prime_lb_42: h_prime_prime[42] >= -1
 h_prime_prime_def_44: 137.7665697236257 h[44] - 137.7665697236257 h[46]
   + h_prime_prime[44] = 0
 h_prime_prime_lb_44: h_prime_prime[44] >= -1
 h_prime_prime_def_46: 137.7665697236257 h[46] - 137.7665697236257 h[48]
   + h_prime_prime[46] = 0
 h_prime_prime_lb_46: h_prime_prime[46] >= -1
 h_prime_prime_def_48: 137.7665697236257 h[48] - 137.7665697236257 h[50]
   + h_prime_prime[48] = 0
 h_prime_prime_lb_48: h_prime_prime[48] >= -1
 h_prime_prime_def_50: 137.7665697236257 h[50] - 137.7665697236257 h[52]
   + h_prime_prime[50] = 0
 h_prime_prime_lb_50: h_prime_prime[50] >= -1
 h_prime_prime_def_52: 137.7665697236257 h[52] - 137.7665697236257 h[54]
   + h_prime_prime[52] = 0
 h_prime_prime_lb_52: h_prime_prime[52] >= -1
 h_prime_prime_def_54: 137.7665697236257 h[54] - 137.7665697236257 h[56]
   + h_prime_prime[54] = 0
 h_prime_prime_lb_54: h_prime_prime[54] >= -1
 h_prime_prime_def_56: 137.7665697236257 h[56] - 137.7665697236257 h[58]
   + h_prime_prime[56] = 0
 h_prime_prime_lb_56: h_prime_prime[56] >= -1
 h_prime_prime_def_58: 137.7665697236257 h[58] - 137.7665697236257 h[60]
   + h_prime_prime[58] = 0
 h_prime_prime_lb_58: h_prime_prime[58] >= -1
 h_prime_prime_def_60: 137.7665697236257 h[60] - 137.7665697236257 h[62]
   + h_prime_prime[60] = 0
 h_prime_prime_lb_60: h_prime_prime[60] >= -1
 h_prime_prime_def_62: 137.7665697236257 h[62] - 137.7665697236257 h[64]
   + h_prime_prime[62] = 0
 h_prime_prime_lb_62: h_prime_prime[62] >= -1
 h_prime_prime_def_64: 137.7665697236257 h[64] - 137.7665697236257 h[66]
   + h_prime_prime[64] = 0
 h_prime_prime_lb_64: h_prime_prime[64] >= -1
 h_prime_prime_def_66: 137.7665697236257 h[66] - 137.7665697236257 h[68]
   + h_prime_prime[66] = 0
 h_prime_prime_lb_66: h_prime_prime[66] >= -1
 h_prime_prime_def_68: 137.7665697236257 h[68] - 137.7665697236257 h[70]
   + h_prime_prime[68] = 0
 h_prime_prime_lb_68: h_prime_prime[68] >= -1
 h_prime_prime_def_70: 137.7665697236257 h[70] - 137.7665697236257 h[72]
   + h_prime_prime[70] = 0
 h_prime_prime_lb_70: h_prime_prime[70] >= -1
 h_prime_prime_def_72: 137.7665697236257 h[72] - 137.7665697236257 h[74]
   + h_prime_prime[72] = 0
 h_prime_prime_lb_72: h_prime_prime[72] >= -1
 h_prime_prime_def_74: 137.7665697236257 h[74] - 137.7665697236257 h[76]
   + h_prime_prime[74] = 0
 h_prime_prime_lb_74: h_prime_prime[74] >= -1
 h_prime_prime_def_76: 137.7665697236257 h[76] - 137.7665697236257 h[78]
   + h_prime_prime[76] = 0
 h_prime_prime_lb_76: h_prime_prime[76] >= -1
 h_prime_prime_def_78: 137.7665697236257 h[78] - 137.7665697236257 h[80]
   + h_prime_prime[78] = 0
 h_prime_prime_lb_78: h_prime_prime[78] >= -1
 h_prime_prime_def_80: 137.7665697236257 h[80] - 137.7665697236257 h[82]
   + h_prime_prime[80] = 0
 h_prime_prime_lb_80: h_prime_prime[80] >= -1
 h_prime_prime_def_82: 137.7665697236257 h[82] - 137.7665697236257 h[84]
   + h_prime_prime[82] = 0
 h_prime_prime_lb_82: h_prime_prime[82] >= -1
 h_prime_prime_def_84: 137.7665697236257 h[84] - 137.7665697236257 h[86]
   + h_prime_prime[84] = 0
 h_prime_prime_lb_84: h_prime_prime[84] >= -1
 h_prime_prime_def_86: 137.7665697236257 h[86] - 137.7665697236257 h[88]
   + h_prime_prime[86] = 0
 h_prime_prime_lb_86: h_prime_prime[86] >= -1
 h_prime_prime_def_88: 137.7665697236257 h[88] - 137.7665697236257 h[90]
   + h_prime_prime[88] = 0
 h_prime_prime_lb_88: h_prime_prime[88] >= -1
 h_prime_prime_def_90: 137.7665697236257 h[90] - 137.7665697236257 h[92]
   + h_prime_prime[90] = 0
 h_prime_prime_lb_90: h_prime_prime[90] >= -1
 h_prime_prime_def_92: 137.7665697236257 h[92] - 137.7665697236257 h[94]
   + h_prime_prime[92] = 0
 h_prime_prime_lb_92: h_prime_prime[92] >= -1
 h_prime_prime_def_94: 137.7665697236257 h[94] - 137.7665697236257 h[96]
   + h_prime_prime[94] = 0
 h_prime_prime_lb_94: h_prime_prime[94] >= -1
 h_prime_prime_def_96: 137.7665697236257 h[96] - 137.7665697236257 h[98]
   + h_prime_prime[96] = 0
 h_prime_prime_lb_96: h_prime_prime[96] >= -1
 h_prime_prime_def_98: 137.7665697236257 h[98] - 137.7665697236257 h[100]
   + h_prime_prime[98] = 0
 h_prime_prime_lb_98: h_prime_prime[98] >= -1
 h_prime_prime_def_100: 137.7665697236257 h[100] - 137.7665697236257 h[102]
   + h_prime_prime[100] = 0
 h_prime_prime_lb_100: h_prime_prime[100] >= -1
 h_prime_prime_def_102: 137.7665697236257 h[102] - 137.7665697236257 h[104]
   + h_prime_prime[102] = 0
 h_prime_prime_lb_102: h_prime_prime[102] >= -1
 h_prime_prime_def_104: 137.7665697236257 h[104] - 137.7665697236257 h[106]
   + h_prime_prime[104] = 0
 h_prime_prime_lb_104: h_prime_prime[104] >= -1
 h_prime_prime_def_106: 137.7665697236257 h[106] - 137.7665697236257 h[108]
   + h_prime_prime[106] = 0
 h_prime_prime_lb_106: h_prime_prime[106] >= -1
 h_prime_prime_def_108: 137.7665697236257 h[108] - 137.7665697236257 h[110]
   + h_prime_prime[108] = 0
 h_prime_prime_lb_108: h_prime_prime[108] >= -1
 h_prime_prime_def_110: 137.7665697236257 h[110] - 137.7665697236257 h[112]
   + h_prime_prime[110] = 0
 h_prime_prime_lb_110: h_prime_prime[110] >= -1
 h_prime_prime_def_112: 137.7665697236257 h[112] - 137.7665697236257 h[114]
   + h_prime_prime[112] = 0
 h_prime_prime_lb_112: h_prime_prime[112] >= -1
 h_prime_prime_def_114: 137.7665697236257 h[114] - 137.7665697236257 h[116]
   + h_prime_prime[114] = 0
 h_prime_prime_lb_114: h_prime_prime[114] >= -1
 h_prime_prime_def_116: 137.7665697236257 h[116] - 137.7665697236257 h[118]
   + h_prime_prime[116] = 0
 h_prime_prime_lb_116: h_prime_prime[116] >= -1
 h_prime_prime_def_118: 137.7665697236257 h[118] - 137.7665697236257 h[120]
   + h_prime_prime[118] = 0
 h_prime_prime_lb_118: h_prime_prime[118] >= -1
 h_prime_prime_def_120: 137.7665697236257 h[120] - 137.7665697236257 h[122]
   + h_prime_prime[120] = 0
 h_prime_prime_lb_120: h_prime_prime[120] >= -1
 h_prime_prime_def_122: 137.7665697236257 h[122] - 137.7665697236257 h[124]
   + h_prime_prime[122] = 0
 h_prime_prime_lb_122: h_prime_prime[122] >= -1
 h_prime_prime_def_124: 137.7665697236257 h[124] - 137.7665697236257 h[126]
   + h_prime_prime[124] = 0
 h_prime_prime_lb_124: h_prime_prime[124] >= -1
 h_prime_prime_def_126: 137.7665697236257 h[126] - 137.7665697236257 h[128]
   + h_prime_prime[126] = 0
 h_prime_prime_lb_126: h_prime_prime[126] >= -1
 h_prime_prime_def_128: 137.7665697236257 h[128] - 137.7665697236257 h[130]
   + h_prime_prime[128] = 0
 h_prime_prime_lb_128: h_prime_prime[128] >= -1
 h_prime_prime_def_130: 137.7665697236257 h[130] - 137.7665697236257 h[132]
   + h_prime_prime[130] = 0
 h_prime_prime_lb_130: h_prime_prime[130] >= -1
 h_prime_prime_def_132: 137.7665697236257 h[132] - 137.7665697236257 h[134]
   + h_prime_prime[132] = 0
 h_prime_prime_lb_132: h_prime_prime[132] >= -1
 h_prime_prime_def_134: 137.7665697236257 h[134] - 137.7665697236257 h[136]
   + h_prime_prime[134] = 0
 h_prime_prime_lb_134: h_prime_prime[134] >= -1
 h_prime_prime_def_136: 137.7665697236257 h[136] - 137.7665697236257 h[138]
   + h_prime_prime[136] = 0
 h_prime_prime_lb_136: h_prime_prime[136] >= -1
 h_prime_prime_def_138: 137.7665697236257 h[138] - 137.7665697236257 h[140]
   + h_prime_prime[138] = 0
 h_prime_prime_lb_138: h_prime_prime[138] >= -1
 h_prime_prime_def_140: 137.7665697236257 h[140] - 137.7665697236257 h[142]
   + h_prime_prime[140] = 0
 h_prime_prime_lb_140: h_prime_prime[140] >= -1
 h_prime_prime_def_142: 137.7665697236257 h[142] - 137.7665697236257 h[144]
   + h_prime_prime[142] = 0
 h_prime_prime_lb_142: h_prime_prime[142] >= -1
 h_prime_prime_def_144: 137.7665697236257 h[144] - 137.7665697236257 h[146]
   + h_prime_prime[144] = 0
 h_prime_prime_lb_144: h_prime_prime[144] >= -1
 h_prime_prime_def_146: 137.7665697236257 h[146] - 137.7665697236257 h[148]
   + h_prime_prime[146] = 0
 h_prime_prime_lb_146: h_prime_prime[146] >= -1
 h_prime_prime_def_148: 137.7665697236257 h[148] - 137.7665697236257 h[150]
   + h_prime_prime[148] = 0
 h_prime_prime_lb_148: h_prime_prime[148] >= -1
 h_prime_prime_def_150: 137.7665697236257 h[150] - 137.7665697236257 h[152]
   + h_prime_prime[150] = 0
 h_prime_prime_lb_150: h_prime_prime[150] >= -1
 h_prime_prime_def_152: 137.7665697236257 h[152] - 137.7665697236257 h[154]
   + h_prime_prime[152] = 0
 h_prime_prime_lb_152: h_prime_prime[152] >= -1
 h_prime_prime_def_154: 137.7665697236257 h[154] - 137.7665697236257 h[156]
   + h_prime_prime[154] = 0
 h_prime_prime_lb_154: h_prime_prime[154] >= -1
 h_prime_prime_def_156: 137.7665697236257 h[156] - 137.7665697236257 h[158]
   + h_prime_prime[156] = 0
 h_prime_prime_lb_156: h_prime_prime[156] >= -1
 h_prime_prime_def_158: 137.7665697236257 h[158] - 137.7665697236257 h[160]
   + h_prime_prime[158] = 0
 h_prime_prime_lb_158: h_prime_prime[158] >= -1
 h_prime_prime_def_160: 137.7665697236257 h[160] - 137.7665697236257 h[162]
   + h_prime_prime[160] = 0
 h_prime_prime_lb_160: h_prime_prime[160] >= -1
 h_prime_prime_def_162: 137.7665697236257 h[162] - 137.7665697236257 h[164]
   + h_prime_prime[162] = 0
 h_prime_prime_lb_162: h_prime_prime[162] >= -1
 h_prime_prime_def_164: 137.7665697236257 h[164] - 137.7665697236257 h[166]
   + h_prime_prime[164] = 0
 h_prime_prime_lb_164: h_prime_prime[164] >= -1
 h_prime_prime_def_166: 137.7665697236257 h[166] - 137.7665697236257 h[168]
   + h_prime_prime[166] = 0
 h_prime_prime_lb_166: h_prime_prime[166] >= -1
 h_prime_prime_def_168: 137.7665697236257 h[168] - 137.7665697236257 h[170]
   + h_prime_prime[168] = 0
 h_prime_prime_lb_168: h_prime_prime[168] >= -1
 h_prime_prime_def_170: 137.7665697236257 h[170] - 137.7665697236257 h[172]
   + h_prime_prime[170] = 0
 h_prime_prime_lb_170: h_prime_prime[170] >= -1
 h_prime_prime_def_172: 137.7665697236257 h[172] - 137.7665697236257 h[174]
   + h_prime_prime[172] = 0
 h_prime_prime_lb_172: h_prime_prime[172] >= -1
 h_prime_prime_def_174: 137.7665697236257 h[174] - 137.7665697236257 h[176]
   + h_prime_prime[174] = 0
 h_prime_prime_lb_174: h_prime_prime[174] >= -1
 h_prime_prime_def_176: 137.7665697236257 h[176] - 137.7665697236257 h[178]
   + h_prime_prime[176] = 0
 h_prime_prime_lb_176: h_prime_prime[176] >= -1
 h_prime_prime_def_178: 137.7665697236257 h[178] - 137.7665697236257 h[180]
   + h_prime_prime[178] = 0
 h_prime_prime_lb_178: h_prime_prime[178] >= -1
 h_prime_prime_def_180: 137.7665697236257 h[180] - 137.7665697236257 h[182]
   + h_prime_prime[180] = 0
 h_prime_prime_lb_180: h_prime_prime[180] >= -1
 h_prime_prime_def_182: 137.7665697236257 h[182] - 137.7665697236257 h[184]
   + h_prime_prime[182] = 0
 h_prime_prime_lb_182: h_prime_prime[182] >= -1
 h_prime_prime_def_184: 137.7665697236257 h[184] - 137.7665697236257 h[186]
   + h_prime_prime[184] = 0
 h_prime_prime_lb_184: h_prime_prime[184] >= -1
 h_prime_prime_def_186: 137.7665697236257 h[186] - 137.7665697236257 h[188]
   + h_prime_prime[186] = 0
 h_prime_prime_lb_186: h_prime_prime[186] >= -1
 h_prime_prime_def_188: 137.7665697236257 h[188] - 137.7665697236257 h[190]
   + h_prime_prime[188] = 0
 h_prime_prime_lb_188: h_prime_prime[188] >= -1
 h_prime_prime_def_190: 137.7665697236257 h[190] - 137.7665697236257 h[192]
   + h_prime_prime[190] = 0
 h_prime_prime_lb_190: h_prime_prime[190] >= -1
 h_prime_prime_def_192: 137.7665697236257 h[192] - 137.7665697236257 h[194]
   + h_prime_prime[192] = 0
 h_prime_prime_lb_192: h_prime_prime[192] >= -1
 h_prime_prime_def_194: 137.7665697236257 h[194] - 137.7665697236257 h[196]
   + h_prime_prime[194] = 0
 h_prime_prime_lb_194: h_prime_prime[194] >= -1
 h_prime_prime_def_196: 137.7665697236257 h[196] - 137.7665697236257 h[198]
   + h_prime_prime[196] = 0
 h_prime_prime_lb_196: h_prime_prime[196] >= -1
 h_prime_prime_def_198: 137.7665697236257 h[198] - 137.7665697236257 h[200]
   + h_prime_prime[198] = 0
 h_prime_prime_lb_198: h_prime_prime[198] >= -1
Bounds
 h[0] free
 h[2] free
 h[4] free
 h[6] free
 h[8] free
 h[10] free
 h[12] free
 h[14] free
 h[16] free
 h[18] free
 h[20] free
 h[22] free
 h[24] free
 h[26] free
 h[28] free
 h[30] free
 h[32] free
 h[34] free
 h[36] free
 h[38] free
 h[40] free
 h[42] free
 h[44] free
 h[46] free
 h[48] free
 h[50] free
 h[52] free
 h[54] free
 h[56] free
 h[58] free
 h[60] free
 h[62] free
 h[64] free
 h[66] free
 h[68] free
 h[70] free
 h[72] free
 h[74] free
 h[76] free
 h[78] free
 h[80] free
 h[82] free
 h[84] free
 h[86] free
 h[88] free
 h[90] free
 h[92] free
 h[94] free
 h[96] free
 h[98] free
 h[100] free
 h[102] free
 h[104] free
 h[106] free
 h[108] free
 h[110] free
 h[112] free
 h[114] free
 h[116] free
 h[118] free
 h[120] free
 h[122] free
 h[124] free
 h[126] free
 h[128] free
 h[130] free
 h[132] free
 h[134] free
 h[136] free
 h[138] free
 h[140] free
 h[142] free
 h[144] free
 h[146] free
 h[148] free
 h[150] free
 h[152] free
 h[154] free
 h[156] free
 h[158] free
 h[160] free
 h[162] free
 h[164] free
 h[166] free
 h[168] free
 h[170] free
 h[172] free
 h[174] free
 h[176] free
 h[178] free
 h[180] free
 h[182] free
 h[184] free
 h[186] free
 h[188] free
 h[190] free
 h[192] free
 h[194] free
 h[196] free
 h[198] free
 h[200] free
 h_prime_prime[0] free
 h_prime_prime[2] free
 h_prime_prime[4] free
 h_prime_prime[6] free
 h_prime_prime[8] free
 h_prime_prime[10] free
 h_prime_prime[12] free
 h_prime_prime[14] free
 h_prime_prime[16] free
 h_prime_prime[18] free
 h_prime_prime[20] free
 h_prime_prime[22] free
 h_prime_prime[24] free
 h_prime_prime[26] free
 h_prime_prime[28] free
 h_prime_prime[30] free
 h_prime_prime[32] free
 h_prime_prime[34] free
 h_prime_prime[36] free
 h_prime_prime[38] free
 h_prime_prime[40] free
 h_prime_prime[42] free
 h_prime_prime[44] free
 h_prime_prime[46] free
 h_prime_prime[48] free
 h_prime_prime[50] free
 h_prime_prime[52] free
 h_prime_prime[54] free
 h_prime_prime[56] free
 h_prime_prime[58] free
 h_prime_prime[60] free
 h_prime_prime[62] free
 h_prime_prime[64] free
 h_prime_prime[66] free
 h_prime_prime[68] free
 h_prime_prime[70] free
 h_prime_prime[72] free
 h_prime_prime[74] free
 h_prime_prime[76] free
 h_prime_prime[78] free
 h_prime_prime[80] free
 h_prime_prime[82] free
 h_prime_prime[84] free
 h_prime_prime[86] free
 h_prime_prime[88] free
 h_prime_prime[90] free
 h_prime_prime[92] free
 h_prime_prime[94] free
 h_prime_prime[96] free
 h_prime_prime[98] free
 h_prime_prime[100] free
 h_prime_prime[102] free
 h_prime_prime[104] free
 h_prime_prime[106] free
 h_prime_prime[108] free
 h_prime_prime[110] free
 h_prime_prime[112] free
 h_prime_prime[114] free
 h_prime_prime[116] free
 h_prime_prime[118] free
 h_prime_prime[120] free
 h_prime_prime[122] free
 h_prime_prime[124] free
 h_prime_prime[126] free
 h_prime_prime[128] free
 h_prime_prime[130] free
 h_prime_prime[132] free
 h_prime_prime[134] free
 h_prime_prime[136] free
 h_prime_prime[138] free
 h_prime_prime[140] free
 h_prime_prime[142] free
 h_prime_prime[144] free
 h_prime_prime[146] free
 h_prime_prime[148] free
 h_prime_prime[150] free
 h_prime_prime[152] free
 h_prime_prime[154] free
 h_prime_prime[156] free
 h_prime_prime[158] free
 h_prime_prime[160] free
 h_prime_prime[162] free
 h_prime_prime[164] free
 h_prime_prime[166] free
 h_prime_prime[168] free
 h_prime_prime[170] free
 h_prime_prime[172] free
 h_prime_prime[174] free
 h_prime_prime[176] free
 h_prime_prime[178] free
 h_prime_prime[180] free
 h_prime_prime[182] free
 h_prime_prime[184] free
 h_prime_prime[186] free
 h_prime_prime[188] free
 h_prime_prime[190] free
 h_prime_prime[192] free
 h_prime_prime[194] free
 h_prime_prime[196] free
 h_prime_prime[198] free
End
